p edge 11 33
e 1 7
e 1 7
e 1 11
e 2 1
e 2 3
e 2 5
e 3 2
e 3 4
e 3 7
e 4 6
e 4 8
e 4 9
e 5 4
e 5 8
e 5 10
e 6 1
e 6 3
e 6 11
e 7 6
e 7 9
e 7 11
e 8 1
e 8 5
e 8 7
e 9 1
e 9 4
e 9 11
e 10 8
e 10 11
e 10 11
e 11 4
e 11 8
e 11 10
